c t mc
c file track1_119.cnf
p cnf 1548 1813
-1 2 0
1  -2 0
-2 -327 3 0
-2 327 -3 0
2 -328 3 0
2 328 -3 0
-3 -329 4 0
-3 329 -4 0
3 -330 4 0
3 330 -4 0
-4  -5 0
4 5 0
-5  -6 0
5 6 0
-6 -335 7 0
-6 335 -7 0
6 -336 7 0
6 336 -7 0
-7 -337 8 0
-7 337 -8 0
7 -338 8 0
7 338 -8 0
-8 -339 9 0
-8 339 -9 0
8 -340 9 0
8 340 -9 0
-9  -10 0
9 10 0
-10 -343 11 0
-10 343 -11 0
10 -344 11 0
10 344 -11 0
-11 -345 12 0
-11 345 -12 0
11 -346 12 0
11 346 -12 0
-12 -347 13 0
-12 347 -13 0
12 -348 13 0
12 348 -13 0
-13  -14 0
13 14 0
-14  -15 0
14 15 0
-15 16 0
15  -16 0
-16 -355 17 0
-16 355 -17 0
16 -356 17 0
16 356 -17 0
-17 -357 18 0
-17 357 -18 0
17 -358 18 0
17 358 -18 0
-1 -359 19 0
-1 359 -19 0
1 -360 19 0
1 360 -19 0
-19 -2  -20 0
-19 2 20 0
19 -2 20 0
19 2 20 0
-20 -3  -21 0
-20 3 21 0
20 -3 21 0
20 3 21 0
-21 -4 -369 22 0
-21 -4 369 -22 0
-21 4 -370 22 0
-21 4 370 -22 0
21 -4 -371 22 0
21 -4 371 -22 0
21 4 -372 22 0
21 4 372 -22 0
-22 -5 23 0
-22 5  -23 0
22 -5 23 0
22 5 23 0
-23 -6 -377 24 0
-23 -6 377 -24 0
-23 6 -378 24 0
-23 6 378 -24 0
23 -6 -379 24 0
23 -6 379 -24 0
23 6 -380 24 0
23 6 380 -24 0
-24 -7  -25 0
-24 7 25 0
24 -7 25 0
24 7 25 0
-25 -8 26 0
-25 8 26 0
25 -8  -26 0
25 8 26 0
-26 -9 27 0
-26 9 27 0
26 -9  -27 0
26 9  -27 0
-27 -10  -28 0
-27 10 28 0
27 -10  -28 0
27 10 28 0
-28 -11 29 0
-28 11  -29 0
28 -11 29 0
28 11  -29 0
-29 -12  -30 0
-29 12 30 0
29 -12  -30 0
29 12 30 0
-30 -13  -31 0
-30 13 31 0
30 -13  -31 0
30 13 31 0
-31 -14  -32 0
-31 14 32 0
31 -14 32 0
31 14  -32 0
-32 -15 33 0
-32 15  -33 0
32 -15 33 0
32 15 33 0
-33 -16 -417 34 0
-33 -16 417 -34 0
-33 16 -418 34 0
-33 16 418 -34 0
33 -16 -419 34 0
33 -16 419 -34 0
33 16 -420 34 0
33 16 420 -34 0
-34 -17 -421 35 0
-34 -17 421 -35 0
-34 17 -422 35 0
-34 17 422 -35 0
34 -17 -423 35 0
34 -17 423 -35 0
34 17 -424 35 0
34 17 424 -35 0
-35 -18 36 0
-35 18 36 0
35 -18  -36 0
35 18 36 0
-19 37 0
19  -37 0
-37 -20 -431 38 0
-37 -20 431 -38 0
-37 20 -432 38 0
-37 20 432 -38 0
37 -20 -433 38 0
37 -20 433 -38 0
37 20 -434 38 0
37 20 434 -38 0
-38 -21 -435 39 0
-38 -21 435 -39 0
-38 21 -436 39 0
-38 21 436 -39 0
38 -21 -437 39 0
38 -21 437 -39 0
38 21 -438 39 0
38 21 438 -39 0
-39 -22  -40 0
-39 22 40 0
39 -22 40 0
39 22 40 0
-40 -23 41 0
-40 23 41 0
40 -23  -41 0
40 23 41 0
-41 -24 -447 42 0
-41 -24 447 -42 0
-41 24 -448 42 0
-41 24 448 -42 0
41 -24 -449 42 0
41 -24 449 -42 0
41 24 -450 42 0
41 24 450 -42 0
-42 -25 43 0
-42 25 43 0
42 -25  -43 0
42 25 43 0
-43 -26  -44 0
-43 26 44 0
43 -26 44 0
43 26 44 0
-44 -27 -459 45 0
-44 -27 459 -45 0
-44 27 -460 45 0
-44 27 460 -45 0
44 -27 -461 45 0
44 -27 461 -45 0
44 27 -462 45 0
44 27 462 -45 0
-45 -28 -463 46 0
-45 -28 463 -46 0
-45 28 -464 46 0
-45 28 464 -46 0
45 -28 -465 46 0
45 -28 465 -46 0
45 28 -466 46 0
45 28 466 -46 0
-46 -29 47 0
-46 29  -47 0
46 -29  -47 0
46 29 47 0
-47 -30  -48 0
-47 30 48 0
47 -30  -48 0
47 30  -48 0
-48 -31 -475 49 0
-48 -31 475 -49 0
-48 31 -476 49 0
-48 31 476 -49 0
48 -31 -477 49 0
48 -31 477 -49 0
48 31 -478 49 0
48 31 478 -49 0
-49 -32 -479 50 0
-49 -32 479 -50 0
-49 32 -480 50 0
-49 32 480 -50 0
49 -32 -481 50 0
49 -32 481 -50 0
49 32 -482 50 0
49 32 482 -50 0
-50 -33  -51 0
-50 33  -51 0
50 -33  -51 0
50 33 51 0
-51 -34 -487 52 0
-51 -34 487 -52 0
-51 34 -488 52 0
-51 34 488 -52 0
51 -34 -489 52 0
51 -34 489 -52 0
51 34 -490 52 0
51 34 490 -52 0
-52 -35 53 0
-52 35 53 0
52 -35  -53 0
52 35 53 0
-53 -36 -495 54 0
-53 -36 495 -54 0
-53 36 -496 54 0
-53 36 496 -54 0
53 -36 -497 54 0
53 -36 497 -54 0
53 36 -498 54 0
53 36 498 -54 0
-37 -499 55 0
-37 499 -55 0
37 -500 55 0
37 500 -55 0
-55 -38 -501 56 0
-55 -38 501 -56 0
-55 38 -502 56 0
-55 38 502 -56 0
55 -38 -503 56 0
55 -38 503 -56 0
55 38 -504 56 0
55 38 504 -56 0
-56 -39 -505 57 0
-56 -39 505 -57 0
-56 39 -506 57 0
-56 39 506 -57 0
56 -39 -507 57 0
56 -39 507 -57 0
56 39 -508 57 0
56 39 508 -57 0
-57 -40 58 0
-57 40 58 0
57 -40  -58 0
57 40 58 0
-58 -41 -513 59 0
-58 -41 513 -59 0
-58 41 -514 59 0
-58 41 514 -59 0
58 -41 -515 59 0
58 -41 515 -59 0
58 41 -516 59 0
58 41 516 -59 0
-59 -42  -60 0
-59 42  -60 0
59 -42  -60 0
59 42 60 0
-60 -43 -521 61 0
-60 -43 521 -61 0
-60 43 -522 61 0
-60 43 522 -61 0
60 -43 -523 61 0
60 -43 523 -61 0
60 43 -524 61 0
60 43 524 -61 0
-61 -44 -525 62 0
-61 -44 525 -62 0
-61 44 -526 62 0
-61 44 526 -62 0
61 -44 -527 62 0
61 -44 527 -62 0
61 44 -528 62 0
61 44 528 -62 0
-62 -45 63 0
-62 45 63 0
62 -45  -63 0
62 45 63 0
-63 -46 64 0
-63 46 64 0
63 -46 64 0
63 46  -64 0
-64 -47 -537 65 0
-64 -47 537 -65 0
-64 47 -538 65 0
-64 47 538 -65 0
64 -47 -539 65 0
64 -47 539 -65 0
64 47 -540 65 0
64 47 540 -65 0
-65 -48 -541 66 0
-65 -48 541 -66 0
-65 48 -542 66 0
-65 48 542 -66 0
65 -48 -543 66 0
65 -48 543 -66 0
65 48 -544 66 0
65 48 544 -66 0
-66 -49 -545 67 0
-66 -49 545 -67 0
-66 49 -546 67 0
-66 49 546 -67 0
66 -49 -547 67 0
66 -49 547 -67 0
66 49 -548 67 0
66 49 548 -67 0
-67 -50  -68 0
-67 50 68 0
67 -50  -68 0
67 50 68 0
-68 -51 -553 69 0
-68 -51 553 -69 0
-68 51 -554 69 0
-68 51 554 -69 0
68 -51 -555 69 0
68 -51 555 -69 0
68 51 -556 69 0
68 51 556 -69 0
-69 -52 70 0
-69 52  -70 0
69 -52  -70 0
69 52  -70 0
-70 -53 71 0
-70 53 71 0
70 -53 71 0
70 53  -71 0
-71 -54 -565 72 0
-71 -54 565 -72 0
-71 54 -566 72 0
-71 54 566 -72 0
71 -54 -567 72 0
71 -54 567 -72 0
71 54 -568 72 0
71 54 568 -72 0
-55 -569 73 0
-55 569 -73 0
55 -570 73 0
55 570 -73 0
-73 -56  -74 0
-73 56  -74 0
73 -56  -74 0
73 56 74 0
-74 -57 -575 75 0
-74 -57 575 -75 0
-74 57 -576 75 0
-74 57 576 -75 0
74 -57 -577 75 0
74 -57 577 -75 0
74 57 -578 75 0
74 57 578 -75 0
-75 -58  -76 0
-75 58 76 0
75 -58  -76 0
75 58  -76 0
-76 -59  -77 0
-76 59  -77 0
76 -59  -77 0
76 59 77 0
-77 -60 78 0
-77 60  -78 0
77 -60  -78 0
77 60  -78 0
-78 -61 -591 79 0
-78 -61 591 -79 0
-78 61 -592 79 0
-78 61 592 -79 0
78 -61 -593 79 0
78 -61 593 -79 0
78 61 -594 79 0
78 61 594 -79 0
-79 -62 80 0
-79 62  -80 0
79 -62  -80 0
79 62 80 0
-80 -63 -599 81 0
-80 -63 599 -81 0
-80 63 -600 81 0
-80 63 600 -81 0
80 -63 -601 81 0
80 -63 601 -81 0
80 63 -602 81 0
80 63 602 -81 0
-81 -64 -603 82 0
-81 -64 603 -82 0
-81 64 -604 82 0
-81 64 604 -82 0
81 -64 -605 82 0
81 -64 605 -82 0
81 64 -606 82 0
81 64 606 -82 0
-82 -65 -607 83 0
-82 -65 607 -83 0
-82 65 -608 83 0
-82 65 608 -83 0
82 -65 -609 83 0
82 -65 609 -83 0
82 65 -610 83 0
82 65 610 -83 0
-83 -66 -611 84 0
-83 -66 611 -84 0
-83 66 -612 84 0
-83 66 612 -84 0
83 -66 -613 84 0
83 -66 613 -84 0
83 66 -614 84 0
83 66 614 -84 0
-84 -67 -615 85 0
-84 -67 615 -85 0
-84 67 -616 85 0
-84 67 616 -85 0
84 -67 -617 85 0
84 -67 617 -85 0
84 67 -618 85 0
84 67 618 -85 0
-85 -68 -619 86 0
-85 -68 619 -86 0
-85 68 -620 86 0
-85 68 620 -86 0
85 -68 -621 86 0
85 -68 621 -86 0
85 68 -622 86 0
85 68 622 -86 0
-86 -69  -87 0
-86 69 87 0
86 -69  -87 0
86 69  -87 0
-87 -70 -627 88 0
-87 -70 627 -88 0
-87 70 -628 88 0
-87 70 628 -88 0
87 -70 -629 88 0
87 -70 629 -88 0
87 70 -630 88 0
87 70 630 -88 0
-88 -71 -631 89 0
-88 -71 631 -89 0
-88 71 -632 89 0
-88 71 632 -89 0
88 -71 -633 89 0
88 -71 633 -89 0
88 71 -634 89 0
88 71 634 -89 0
-89 -72 -635 90 0
-89 -72 635 -90 0
-89 72 -636 90 0
-89 72 636 -90 0
89 -72 -637 90 0
89 -72 637 -90 0
89 72 -638 90 0
89 72 638 -90 0
-73  -91 0
73 91 0
-91 -74 92 0
-91 74  -92 0
91 -74  -92 0
91 74 92 0
-92 -75 -645 93 0
-92 -75 645 -93 0
-92 75 -646 93 0
-92 75 646 -93 0
92 -75 -647 93 0
92 -75 647 -93 0
92 75 -648 93 0
92 75 648 -93 0
-93 -76 94 0
-93 76 94 0
93 -76  -94 0
93 76 94 0
-94 -77  -95 0
-94 77  -95 0
94 -77 95 0
94 77 95 0
-95 -78 96 0
-95 78 96 0
95 -78  -96 0
95 78 96 0
-96 -79 97 0
-96 79  -97 0
96 -79 97 0
96 79 97 0
-97 -80  -98 0
-97 80 98 0
97 -80  -98 0
97 80  -98 0
-98 -81  -99 0
-98 81  -99 0
98 -81 99 0
98 81 99 0
-99 -82 -673 100 0
-99 -82 673 -100 0
-99 82 -674 100 0
-99 82 674 -100 0
99 -82 -675 100 0
99 -82 675 -100 0
99 82 -676 100 0
99 82 676 -100 0
-100 -83 -677 101 0
-100 -83 677 -101 0
-100 83 -678 101 0
-100 83 678 -101 0
100 -83 -679 101 0
100 -83 679 -101 0
100 83 -680 101 0
100 83 680 -101 0
-101 -84 102 0
-101 84 102 0
101 -84 102 0
101 84  -102 0
-102 -85 -685 103 0
-102 -85 685 -103 0
-102 85 -686 103 0
-102 85 686 -103 0
102 -85 -687 103 0
102 -85 687 -103 0
102 85 -688 103 0
102 85 688 -103 0
-103 -86 -689 104 0
-103 -86 689 -104 0
-103 86 -690 104 0
-103 86 690 -104 0
103 -86 -691 104 0
103 -86 691 -104 0
103 86 -692 104 0
103 86 692 -104 0
-104 -87 -693 105 0
-104 -87 693 -105 0
-104 87 -694 105 0
-104 87 694 -105 0
104 -87 -695 105 0
104 -87 695 -105 0
104 87 -696 105 0
104 87 696 -105 0
-105 -88  -106 0
-105 88 106 0
105 -88  -106 0
105 88  -106 0
-106 -89 -701 107 0
-106 -89 701 -107 0
-106 89 -702 107 0
-106 89 702 -107 0
106 -89 -703 107 0
106 -89 703 -107 0
106 89 -704 107 0
106 89 704 -107 0
-107 -90  -108 0
-107 90  -108 0
107 -90 108 0
107 90  -108 0
-91 -709 109 0
-91 709 -109 0
91 -710 109 0
91 710 -109 0
-109 -92 -711 110 0
-109 -92 711 -110 0
-109 92 -712 110 0
-109 92 712 -110 0
109 -92 -713 110 0
109 -92 713 -110 0
109 92 -714 110 0
109 92 714 -110 0
-110 -93 111 0
-110 93  -111 0
110 -93 111 0
110 93 111 0
-111 -94  -112 0
-111 94 112 0
111 -94 112 0
111 94  -112 0
-112 -95  -113 0
-112 95 113 0
112 -95  -113 0
112 95  -113 0
-113 -96 -727 114 0
-113 -96 727 -114 0
-113 96 -728 114 0
-113 96 728 -114 0
113 -96 -729 114 0
113 -96 729 -114 0
113 96 -730 114 0
113 96 730 -114 0
-114 -97 -731 115 0
-114 -97 731 -115 0
-114 97 -732 115 0
-114 97 732 -115 0
114 -97 -733 115 0
114 -97 733 -115 0
114 97 -734 115 0
114 97 734 -115 0
-115 -98 -735 116 0
-115 -98 735 -116 0
-115 98 -736 116 0
-115 98 736 -116 0
115 -98 -737 116 0
115 -98 737 -116 0
115 98 -738 116 0
115 98 738 -116 0
-116 -99 -739 117 0
-116 -99 739 -117 0
-116 99 -740 117 0
-116 99 740 -117 0
116 -99 -741 117 0
116 -99 741 -117 0
116 99 -742 117 0
116 99 742 -117 0
-117 -100 118 0
-117 100 118 0
117 -100 118 0
117 100  -118 0
-118 -101 -747 119 0
-118 -101 747 -119 0
-118 101 -748 119 0
-118 101 748 -119 0
118 -101 -749 119 0
118 -101 749 -119 0
118 101 -750 119 0
118 101 750 -119 0
-119 -102 -751 120 0
-119 -102 751 -120 0
-119 102 -752 120 0
-119 102 752 -120 0
119 -102 -753 120 0
119 -102 753 -120 0
119 102 -754 120 0
119 102 754 -120 0
-120 -103 121 0
-120 103 121 0
120 -103  -121 0
120 103 121 0
-121 -104 122 0
-121 104  -122 0
121 -104 122 0
121 104  -122 0
-122 -105  -123 0
-122 105 123 0
122 -105 123 0
122 105  -123 0
-123 -106 -767 124 0
-123 -106 767 -124 0
-123 106 -768 124 0
-123 106 768 -124 0
123 -106 -769 124 0
123 -106 769 -124 0
123 106 -770 124 0
123 106 770 -124 0
-124 -107 125 0
-124 107  -125 0
124 -107 125 0
124 107  -125 0
-125 -108  -126 0
-125 108  -126 0
125 -108  -126 0
125 108 126 0
-109  -127 0
109 127 0
-127 -110 -781 128 0
-127 -110 781 -128 0
-127 110 -782 128 0
-127 110 782 -128 0
127 -110 -783 128 0
127 -110 783 -128 0
127 110 -784 128 0
127 110 784 -128 0
-128 -111 129 0
-128 111  -129 0
128 -111  -129 0
128 111 129 0
-129 -112 -789 130 0
-129 -112 789 -130 0
-129 112 -790 130 0
-129 112 790 -130 0
129 -112 -791 130 0
129 -112 791 -130 0
129 112 -792 130 0
129 112 792 -130 0
-130 -113 131 0
-130 113  -131 0
130 -113 131 0
130 113 131 0
-131 -114 132 0
-131 114  -132 0
131 -114 132 0
131 114 132 0
-132 -115 133 0
-132 115  -133 0
132 -115 133 0
132 115 133 0
-133 -116 -805 134 0
-133 -116 805 -134 0
-133 116 -806 134 0
-133 116 806 -134 0
133 -116 -807 134 0
133 -116 807 -134 0
133 116 -808 134 0
133 116 808 -134 0
-134 -117  -135 0
-134 117 135 0
134 -117  -135 0
134 117 135 0
-135 -118 -813 136 0
-135 -118 813 -136 0
-135 118 -814 136 0
-135 118 814 -136 0
135 -118 -815 136 0
135 -118 815 -136 0
135 118 -816 136 0
135 118 816 -136 0
-136 -119 -817 137 0
-136 -119 817 -137 0
-136 119 -818 137 0
-136 119 818 -137 0
136 -119 -819 137 0
136 -119 819 -137 0
136 119 -820 137 0
136 119 820 -137 0
-137 -120 138 0
-137 120  -138 0
137 -120  -138 0
137 120  -138 0
-138 -121  -139 0
-138 121 139 0
138 -121  -139 0
138 121 139 0
-139 -122 -829 140 0
-139 -122 829 -140 0
-139 122 -830 140 0
-139 122 830 -140 0
139 -122 -831 140 0
139 -122 831 -140 0
139 122 -832 140 0
139 122 832 -140 0
-140 -123 -833 141 0
-140 -123 833 -141 0
-140 123 -834 141 0
-140 123 834 -141 0
140 -123 -835 141 0
140 -123 835 -141 0
140 123 -836 141 0
140 123 836 -141 0
-141 -124 -837 142 0
-141 -124 837 -142 0
-141 124 -838 142 0
-141 124 838 -142 0
141 -124 -839 142 0
141 -124 839 -142 0
141 124 -840 142 0
141 124 840 -142 0
-142 -125  -143 0
-142 125 143 0
142 -125 143 0
142 125 143 0
-143 -126 -845 144 0
-143 -126 845 -144 0
-143 126 -846 144 0
-143 126 846 -144 0
143 -126 -847 144 0
143 -126 847 -144 0
143 126 -848 144 0
143 126 848 -144 0
-127 -849 145 0
-127 849 -145 0
127 -850 145 0
127 850 -145 0
-145 -128  -146 0
-145 128 146 0
145 -128 146 0
145 128  -146 0
-146 -129 147 0
-146 129  -147 0
146 -129  -147 0
146 129  -147 0
-147 -130  -148 0
-147 130 148 0
147 -130 148 0
147 130  -148 0
-148 -131 -863 149 0
-148 -131 863 -149 0
-148 131 -864 149 0
-148 131 864 -149 0
148 -131 -865 149 0
148 -131 865 -149 0
148 131 -866 149 0
148 131 866 -149 0
-149 -132 -867 150 0
-149 -132 867 -150 0
-149 132 -868 150 0
-149 132 868 -150 0
149 -132 -869 150 0
149 -132 869 -150 0
149 132 -870 150 0
149 132 870 -150 0
-150 -133  -151 0
-150 133  -151 0
150 -133 151 0
150 133  -151 0
-151 -134  -152 0
-151 134  -152 0
151 -134 152 0
151 134  -152 0
-152 -135 -879 153 0
-152 -135 879 -153 0
-152 135 -880 153 0
-152 135 880 -153 0
152 -135 -881 153 0
152 -135 881 -153 0
152 135 -882 153 0
152 135 882 -153 0
-153 -136 -883 154 0
-153 -136 883 -154 0
-153 136 -884 154 0
-153 136 884 -154 0
153 -136 -885 154 0
153 -136 885 -154 0
153 136 -886 154 0
153 136 886 -154 0
-154 -137 -887 155 0
-154 -137 887 -155 0
-154 137 -888 155 0
-154 137 888 -155 0
154 -137 -889 155 0
154 -137 889 -155 0
154 137 -890 155 0
154 137 890 -155 0
-155 -138 -891 156 0
-155 -138 891 -156 0
-155 138 -892 156 0
-155 138 892 -156 0
155 -138 -893 156 0
155 -138 893 -156 0
155 138 -894 156 0
155 138 894 -156 0
-156 -139 157 0
-156 139 157 0
156 -139  -157 0
156 139  -157 0
-157 -140 -899 158 0
-157 -140 899 -158 0
-157 140 -900 158 0
-157 140 900 -158 0
157 -140 -901 158 0
157 -140 901 -158 0
157 140 -902 158 0
157 140 902 -158 0
-158 -141  -159 0
-158 141 159 0
158 -141 159 0
158 141 159 0
-159 -142 160 0
-159 142  -160 0
159 -142  -160 0
159 142 160 0
-160 -143 -911 161 0
-160 -143 911 -161 0
-160 143 -912 161 0
-160 143 912 -161 0
160 -143 -913 161 0
160 -143 913 -161 0
160 143 -914 161 0
160 143 914 -161 0
-161 -144 -915 162 0
-161 -144 915 -162 0
-161 144 -916 162 0
-161 144 916 -162 0
161 -144 -917 162 0
161 -144 917 -162 0
161 144 -918 162 0
161 144 918 -162 0
-145 163 0
145  -163 0
-163 -146  -164 0
-163 146 164 0
163 -146  -164 0
163 146  -164 0
-164 -147 -925 165 0
-164 -147 925 -165 0
-164 147 -926 165 0
-164 147 926 -165 0
164 -147 -927 165 0
164 -147 927 -165 0
164 147 -928 165 0
164 147 928 -165 0
-165 -148 166 0
-165 148 166 0
165 -148 166 0
165 148  -166 0
-166 -149 -933 167 0
-166 -149 933 -167 0
-166 149 -934 167 0
-166 149 934 -167 0
166 -149 -935 167 0
166 -149 935 -167 0
166 149 -936 167 0
166 149 936 -167 0
-167 -150 168 0
-167 150  -168 0
167 -150 168 0
167 150  -168 0
-168 -151 -941 169 0
-168 -151 941 -169 0
-168 151 -942 169 0
-168 151 942 -169 0
168 -151 -943 169 0
168 -151 943 -169 0
168 151 -944 169 0
168 151 944 -169 0
-169 -152 170 0
-169 152 170 0
169 -152  -170 0
169 152  -170 0
-170 -153 -949 171 0
-170 -153 949 -171 0
-170 153 -950 171 0
-170 153 950 -171 0
170 -153 -951 171 0
170 -153 951 -171 0
170 153 -952 171 0
170 153 952 -171 0
-171 -154  -172 0
-171 154 172 0
171 -154 172 0
171 154  -172 0
-172 -155 -957 173 0
-172 -155 957 -173 0
-172 155 -958 173 0
-172 155 958 -173 0
172 -155 -959 173 0
172 -155 959 -173 0
172 155 -960 173 0
172 155 960 -173 0
-173 -156 -961 174 0
-173 -156 961 -174 0
-173 156 -962 174 0
-173 156 962 -174 0
173 -156 -963 174 0
173 -156 963 -174 0
173 156 -964 174 0
173 156 964 -174 0
-174 -157 -965 175 0
-174 -157 965 -175 0
-174 157 -966 175 0
-174 157 966 -175 0
174 -157 -967 175 0
174 -157 967 -175 0
174 157 -968 175 0
174 157 968 -175 0
-175 -158 176 0
-175 158 176 0
175 -158 176 0
175 158  -176 0
-176 -159 177 0
-176 159  -177 0
176 -159  -177 0
176 159  -177 0
-177 -160 -977 178 0
-177 -160 977 -178 0
-177 160 -978 178 0
-177 160 978 -178 0
177 -160 -979 178 0
177 -160 979 -178 0
177 160 -980 178 0
177 160 980 -178 0
-178 -161 179 0
-178 161  -179 0
178 -161  -179 0
178 161 179 0
-179 -162 180 0
-179 162  -180 0
179 -162 180 0
179 162 180 0
-163 -989 181 0
-163 989 -181 0
163 -990 181 0
163 990 -181 0
-181 -164 -991 182 0
-181 -164 991 -182 0
-181 164 -992 182 0
-181 164 992 -182 0
181 -164 -993 182 0
181 -164 993 -182 0
181 164 -994 182 0
181 164 994 -182 0
-182 -165  -183 0
-182 165 183 0
182 -165 183 0
182 165  -183 0
-183 -166  -184 0
-183 166  -184 0
183 -166 184 0
183 166 184 0
-184 -167 -1003 185 0
-184 -167 1003 -185 0
-184 167 -1004 185 0
-184 167 1004 -185 0
184 -167 -1005 185 0
184 -167 1005 -185 0
184 167 -1006 185 0
184 167 1006 -185 0
-185 -168  -186 0
-185 168  -186 0
185 -168 186 0
185 168 186 0
-186 -169 187 0
-186 169  -187 0
186 -169 187 0
186 169 187 0
-187 -170 -1015 188 0
-187 -170 1015 -188 0
-187 170 -1016 188 0
-187 170 1016 -188 0
187 -170 -1017 188 0
187 -170 1017 -188 0
187 170 -1018 188 0
187 170 1018 -188 0
-188 -171 189 0
-188 171  -189 0
188 -171  -189 0
188 171 189 0
-189 -172  -190 0
-189 172  -190 0
189 -172 190 0
189 172 190 0
-190 -173 -1027 191 0
-190 -173 1027 -191 0
-190 173 -1028 191 0
-190 173 1028 -191 0
190 -173 -1029 191 0
190 -173 1029 -191 0
190 173 -1030 191 0
190 173 1030 -191 0
-191 -174 192 0
-191 174 192 0
191 -174 192 0
191 174  -192 0
-192 -175  -193 0
-192 175 193 0
192 -175  -193 0
192 175 193 0
-193 -176 -1039 194 0
-193 -176 1039 -194 0
-193 176 -1040 194 0
-193 176 1040 -194 0
193 -176 -1041 194 0
193 -176 1041 -194 0
193 176 -1042 194 0
193 176 1042 -194 0
-194 -177  -195 0
-194 177 195 0
194 -177 195 0
194 177  -195 0
-195 -178 196 0
-195 178 196 0
195 -178 196 0
195 178  -196 0
-196 -179 -1051 197 0
-196 -179 1051 -197 0
-196 179 -1052 197 0
-196 179 1052 -197 0
196 -179 -1053 197 0
196 -179 1053 -197 0
196 179 -1054 197 0
196 179 1054 -197 0
-197 -180 -1055 198 0
-197 -180 1055 -198 0
-197 180 -1056 198 0
-197 180 1056 -198 0
197 -180 -1057 198 0
197 -180 1057 -198 0
197 180 -1058 198 0
197 180 1058 -198 0
-181 199 0
181  -199 0
-199 -182 -1061 200 0
-199 -182 1061 -200 0
-199 182 -1062 200 0
-199 182 1062 -200 0
199 -182 -1063 200 0
199 -182 1063 -200 0
199 182 -1064 200 0
199 182 1064 -200 0
-200 -183 -1065 201 0
-200 -183 1065 -201 0
-200 183 -1066 201 0
-200 183 1066 -201 0
200 -183 -1067 201 0
200 -183 1067 -201 0
200 183 -1068 201 0
200 183 1068 -201 0
-201 -184 -1069 202 0
-201 -184 1069 -202 0
-201 184 -1070 202 0
-201 184 1070 -202 0
201 -184 -1071 202 0
201 -184 1071 -202 0
201 184 -1072 202 0
201 184 1072 -202 0
-202 -185  -203 0
-202 185 203 0
202 -185  -203 0
202 185  -203 0
-203 -186 204 0
-203 186  -204 0
203 -186  -204 0
203 186  -204 0
-204 -187 205 0
-204 187 205 0
204 -187  -205 0
204 187 205 0
-205 -188 -1085 206 0
-205 -188 1085 -206 0
-205 188 -1086 206 0
-205 188 1086 -206 0
205 -188 -1087 206 0
205 -188 1087 -206 0
205 188 -1088 206 0
205 188 1088 -206 0
-206 -189 -1089 207 0
-206 -189 1089 -207 0
-206 189 -1090 207 0
-206 189 1090 -207 0
206 -189 -1091 207 0
206 -189 1091 -207 0
206 189 -1092 207 0
206 189 1092 -207 0
-207 -190  -208 0
-207 190 208 0
207 -190 208 0
207 190 208 0
-208 -191 209 0
-208 191 209 0
208 -191  -209 0
208 191 209 0
-209 -192  -210 0
-209 192  -210 0
209 -192  -210 0
209 192 210 0
-210 -193 -1105 211 0
-210 -193 1105 -211 0
-210 193 -1106 211 0
-210 193 1106 -211 0
210 -193 -1107 211 0
210 -193 1107 -211 0
210 193 -1108 211 0
210 193 1108 -211 0
-211 -194  -212 0
-211 194 212 0
211 -194  -212 0
211 194  -212 0
-212 -195  -213 0
-212 195 213 0
212 -195 213 0
212 195  -213 0
-213 -196  -214 0
-213 196  -214 0
213 -196 214 0
213 196 214 0
-214 -197 -1121 215 0
-214 -197 1121 -215 0
-214 197 -1122 215 0
-214 197 1122 -215 0
214 -197 -1123 215 0
214 -197 1123 -215 0
214 197 -1124 215 0
214 197 1124 -215 0
-215 -198 -1125 216 0
-215 -198 1125 -216 0
-215 198 -1126 216 0
-215 198 1126 -216 0
215 -198 -1127 216 0
215 -198 1127 -216 0
215 198 -1128 216 0
215 198 1128 -216 0
-199  -217 0
199 217 0
-217 -200 -1131 218 0
-217 -200 1131 -218 0
-217 200 -1132 218 0
-217 200 1132 -218 0
217 -200 -1133 218 0
217 -200 1133 -218 0
217 200 -1134 218 0
217 200 1134 -218 0
-218 -201 -1135 219 0
-218 -201 1135 -219 0
-218 201 -1136 219 0
-218 201 1136 -219 0
218 -201 -1137 219 0
218 -201 1137 -219 0
218 201 -1138 219 0
218 201 1138 -219 0
-219 -202 220 0
-219 202  -220 0
219 -202 220 0
219 202 220 0
-220 -203 221 0
-220 203  -221 0
220 -203  -221 0
220 203  -221 0
-221 -204  -222 0
-221 204  -222 0
221 -204 222 0
221 204 222 0
-222 -205 -1151 223 0
-222 -205 1151 -223 0
-222 205 -1152 223 0
-222 205 1152 -223 0
222 -205 -1153 223 0
222 -205 1153 -223 0
222 205 -1154 223 0
222 205 1154 -223 0
-223 -206 224 0
-223 206  -224 0
223 -206 224 0
223 206  -224 0
-224 -207  -225 0
-224 207 225 0
224 -207 225 0
224 207 225 0
-225 -208 -1163 226 0
-225 -208 1163 -226 0
-225 208 -1164 226 0
-225 208 1164 -226 0
225 -208 -1165 226 0
225 -208 1165 -226 0
225 208 -1166 226 0
225 208 1166 -226 0
-226 -209  -227 0
-226 209  -227 0
226 -209 227 0
226 209  -227 0
-227 -210 228 0
-227 210  -228 0
227 -210  -228 0
227 210  -228 0
-228 -211 -1175 229 0
-228 -211 1175 -229 0
-228 211 -1176 229 0
-228 211 1176 -229 0
228 -211 -1177 229 0
228 -211 1177 -229 0
228 211 -1178 229 0
228 211 1178 -229 0
-229 -212 -1179 230 0
-229 -212 1179 -230 0
-229 212 -1180 230 0
-229 212 1180 -230 0
229 -212 -1181 230 0
229 -212 1181 -230 0
229 212 -1182 230 0
229 212 1182 -230 0
-230 -213 231 0
-230 213  -231 0
230 -213  -231 0
230 213 231 0
-231 -214  -232 0
-231 214 232 0
231 -214 232 0
231 214 232 0
-232 -215  -233 0
-232 215 233 0
232 -215 233 0
232 215 233 0
-233 -216  -234 0
-233 216 234 0
233 -216  -234 0
233 216  -234 0
-217 -1199 235 0
-217 1199 -235 0
217 -1200 235 0
217 1200 -235 0
-235 -218  -236 0
-235 218  -236 0
235 -218 236 0
235 218  -236 0
-236 -219 237 0
-236 219 237 0
236 -219  -237 0
236 219 237 0
-237 -220 238 0
-237 220  -238 0
237 -220  -238 0
237 220  -238 0
-238 -221 -1213 239 0
-238 -221 1213 -239 0
-238 221 -1214 239 0
-238 221 1214 -239 0
238 -221 -1215 239 0
238 -221 1215 -239 0
238 221 -1216 239 0
238 221 1216 -239 0
-239 -222  -240 0
-239 222 240 0
239 -222  -240 0
239 222  -240 0
-240 -223 -1221 241 0
-240 -223 1221 -241 0
-240 223 -1222 241 0
-240 223 1222 -241 0
240 -223 -1223 241 0
240 -223 1223 -241 0
240 223 -1224 241 0
240 223 1224 -241 0
-241 -224 -1225 242 0
-241 -224 1225 -242 0
-241 224 -1226 242 0
-241 224 1226 -242 0
241 -224 -1227 242 0
241 -224 1227 -242 0
241 224 -1228 242 0
241 224 1228 -242 0
-242 -225 -1229 243 0
-242 -225 1229 -243 0
-242 225 -1230 243 0
-242 225 1230 -243 0
242 -225 -1231 243 0
242 -225 1231 -243 0
242 225 -1232 243 0
242 225 1232 -243 0
-243 -226  -244 0
-243 226 244 0
243 -226 244 0
243 226  -244 0
-244 -227 -1237 245 0
-244 -227 1237 -245 0
-244 227 -1238 245 0
-244 227 1238 -245 0
244 -227 -1239 245 0
244 -227 1239 -245 0
244 227 -1240 245 0
244 227 1240 -245 0
-245 -228 246 0
-245 228 246 0
245 -228 246 0
245 228  -246 0
-246 -229 247 0
-246 229  -247 0
246 -229 247 0
246 229  -247 0
-247 -230  -248 0
-247 230  -248 0
247 -230 248 0
247 230  -248 0
-248 -231 -1253 249 0
-248 -231 1253 -249 0
-248 231 -1254 249 0
-248 231 1254 -249 0
248 -231 -1255 249 0
248 -231 1255 -249 0
248 231 -1256 249 0
248 231 1256 -249 0
-249 -232 -1257 250 0
-249 -232 1257 -250 0
-249 232 -1258 250 0
-249 232 1258 -250 0
249 -232 -1259 250 0
249 -232 1259 -250 0
249 232 -1260 250 0
249 232 1260 -250 0
-250 -233  -251 0
-250 233 251 0
250 -233 251 0
250 233 251 0
-251 -234 -1265 252 0
-251 -234 1265 -252 0
-251 234 -1266 252 0
-251 234 1266 -252 0
251 -234 -1267 252 0
251 -234 1267 -252 0
251 234 -1268 252 0
251 234 1268 -252 0
-235  -253 0
235 253 0
-253 -236 -1271 254 0
-253 -236 1271 -254 0
-253 236 -1272 254 0
-253 236 1272 -254 0
253 -236 -1273 254 0
253 -236 1273 -254 0
253 236 -1274 254 0
253 236 1274 -254 0
-254 -237 255 0
-254 237 255 0
254 -237 255 0
254 237  -255 0
-255 -238  -256 0
-255 238  -256 0
255 -238 256 0
255 238  -256 0
-256 -239  -257 0
-256 239 257 0
256 -239  -257 0
256 239  -257 0
-257 -240 258 0
-257 240  -258 0
257 -240 258 0
257 240 258 0
-258 -241  -259 0
-258 241  -259 0
258 -241  -259 0
258 241 259 0
-259 -242 -1295 260 0
-259 -242 1295 -260 0
-259 242 -1296 260 0
-259 242 1296 -260 0
259 -242 -1297 260 0
259 -242 1297 -260 0
259 242 -1298 260 0
259 242 1298 -260 0
-260 -243  -261 0
-260 243  -261 0
260 -243 261 0
260 243  -261 0
-261 -244  -262 0
-261 244  -262 0
261 -244 262 0
261 244 262 0
-262 -245  -263 0
-262 245 263 0
262 -245 263 0
262 245  -263 0
-263 -246 -1311 264 0
-263 -246 1311 -264 0
-263 246 -1312 264 0
-263 246 1312 -264 0
263 -246 -1313 264 0
263 -246 1313 -264 0
263 246 -1314 264 0
263 246 1314 -264 0
-264 -247 -1315 265 0
-264 -247 1315 -265 0
-264 247 -1316 265 0
-264 247 1316 -265 0
264 -247 -1317 265 0
264 -247 1317 -265 0
264 247 -1318 265 0
264 247 1318 -265 0
-265 -248 266 0
-265 248  -266 0
265 -248  -266 0
265 248  -266 0
-266 -249 -1323 267 0
-266 -249 1323 -267 0
-266 249 -1324 267 0
-266 249 1324 -267 0
266 -249 -1325 267 0
266 -249 1325 -267 0
266 249 -1326 267 0
266 249 1326 -267 0
-267 -250  -268 0
-267 250 268 0
267 -250 268 0
267 250 268 0
-268 -251 269 0
-268 251 269 0
268 -251  -269 0
268 251  -269 0
-269 -252  -270 0
-269 252 270 0
269 -252 270 0
269 252  -270 0
-253 -1339 271 0
-253 1339 -271 0
253 -1340 271 0
253 1340 -271 0
-271 -254  -272 0
-271 254  -272 0
271 -254  -272 0
271 254 272 0
-272 -255 273 0
-272 255 273 0
272 -255  -273 0
272 255  -273 0
-273 -256  -274 0
-273 256  -274 0
273 -256 274 0
273 256  -274 0
-274 -257 -1353 275 0
-274 -257 1353 -275 0
-274 257 -1354 275 0
-274 257 1354 -275 0
274 -257 -1355 275 0
274 -257 1355 -275 0
274 257 -1356 275 0
274 257 1356 -275 0
-275 -258 -1357 276 0
-275 -258 1357 -276 0
-275 258 -1358 276 0
-275 258 1358 -276 0
275 -258 -1359 276 0
275 -258 1359 -276 0
275 258 -1360 276 0
275 258 1360 -276 0
-276 -259 -1361 277 0
-276 -259 1361 -277 0
-276 259 -1362 277 0
-276 259 1362 -277 0
276 -259 -1363 277 0
276 -259 1363 -277 0
276 259 -1364 277 0
276 259 1364 -277 0
-277 -260  -278 0
-277 260 278 0
277 -260 278 0
277 260 278 0
-278 -261 -1369 279 0
-278 -261 1369 -279 0
-278 261 -1370 279 0
-278 261 1370 -279 0
278 -261 -1371 279 0
278 -261 1371 -279 0
278 261 -1372 279 0
278 261 1372 -279 0
-279 -262 -1373 280 0
-279 -262 1373 -280 0
-279 262 -1374 280 0
-279 262 1374 -280 0
279 -262 -1375 280 0
279 -262 1375 -280 0
279 262 -1376 280 0
279 262 1376 -280 0
-280 -263 -1377 281 0
-280 -263 1377 -281 0
-280 263 -1378 281 0
-280 263 1378 -281 0
280 -263 -1379 281 0
280 -263 1379 -281 0
280 263 -1380 281 0
280 263 1380 -281 0
-281 -264 282 0
-281 264  -282 0
281 -264  -282 0
281 264  -282 0
-282 -265 -1385 283 0
-282 -265 1385 -283 0
-282 265 -1386 283 0
-282 265 1386 -283 0
282 -265 -1387 283 0
282 -265 1387 -283 0
282 265 -1388 283 0
282 265 1388 -283 0
-283 -266 284 0
-283 266 284 0
283 -266 284 0
283 266  -284 0
-284 -267 -1393 285 0
-284 -267 1393 -285 0
-284 267 -1394 285 0
-284 267 1394 -285 0
284 -267 -1395 285 0
284 -267 1395 -285 0
284 267 -1396 285 0
284 267 1396 -285 0
-285 -268  -286 0
-285 268  -286 0
285 -268 286 0
285 268  -286 0
-286 -269  -287 0
-286 269 287 0
286 -269  -287 0
286 269  -287 0
-287 -270 -1405 288 0
-287 -270 1405 -288 0
-287 270 -1406 288 0
-287 270 1406 -288 0
287 -270 -1407 288 0
287 -270 1407 -288 0
287 270 -1408 288 0
287 270 1408 -288 0
-271 -1409 289 0
-271 1409 -289 0
271 -1410 289 0
271 1410 -289 0
-289 -272 290 0
-289 272 290 0
289 -272 290 0
289 272  -290 0
-290 -273 291 0
-290 273  -291 0
290 -273  -291 0
290 273 291 0
-291 -274  -292 0
-291 274  -292 0
291 -274  -292 0
291 274 292 0
-292 -275  -293 0
-292 275 293 0
292 -275 293 0
292 275 293 0
-293 -276 294 0
-293 276 294 0
293 -276  -294 0
293 276 294 0
-294 -277 -1431 295 0
-294 -277 1431 -295 0
-294 277 -1432 295 0
-294 277 1432 -295 0
294 -277 -1433 295 0
294 -277 1433 -295 0
294 277 -1434 295 0
294 277 1434 -295 0
-295 -278  -296 0
-295 278  -296 0
295 -278 296 0
295 278  -296 0
-296 -279 -1439 297 0
-296 -279 1439 -297 0
-296 279 -1440 297 0
-296 279 1440 -297 0
296 -279 -1441 297 0
296 -279 1441 -297 0
296 279 -1442 297 0
296 279 1442 -297 0
-297 -280 -1443 298 0
-297 -280 1443 -298 0
-297 280 -1444 298 0
-297 280 1444 -298 0
297 -280 -1445 298 0
297 -280 1445 -298 0
297 280 -1446 298 0
297 280 1446 -298 0
-298 -281 -1447 299 0
-298 -281 1447 -299 0
-298 281 -1448 299 0
-298 281 1448 -299 0
298 -281 -1449 299 0
298 -281 1449 -299 0
298 281 -1450 299 0
298 281 1450 -299 0
-299 -282 300 0
-299 282  -300 0
299 -282 300 0
299 282 300 0
-300 -283 -1455 301 0
-300 -283 1455 -301 0
-300 283 -1456 301 0
-300 283 1456 -301 0
300 -283 -1457 301 0
300 -283 1457 -301 0
300 283 -1458 301 0
300 283 1458 -301 0
-301 -284 -1459 302 0
-301 -284 1459 -302 0
-301 284 -1460 302 0
-301 284 1460 -302 0
301 -284 -1461 302 0
301 -284 1461 -302 0
301 284 -1462 302 0
301 284 1462 -302 0
-302 -285 -1463 303 0
-302 -285 1463 -303 0
-302 285 -1464 303 0
-302 285 1464 -303 0
302 -285 -1465 303 0
302 -285 1465 -303 0
302 285 -1466 303 0
302 285 1466 -303 0
-303 -286 -1467 304 0
-303 -286 1467 -304 0
-303 286 -1468 304 0
-303 286 1468 -304 0
303 -286 -1469 304 0
303 -286 1469 -304 0
303 286 -1470 304 0
303 286 1470 -304 0
-304 -287 -1471 305 0
-304 -287 1471 -305 0
-304 287 -1472 305 0
-304 287 1472 -305 0
304 -287 -1473 305 0
304 -287 1473 -305 0
304 287 -1474 305 0
304 287 1474 -305 0
-305 -288 -1475 306 0
-305 -288 1475 -306 0
-305 288 -1476 306 0
-305 288 1476 -306 0
305 -288 -1477 306 0
305 -288 1477 -306 0
305 288 -1478 306 0
305 288 1478 -306 0
-289 -1479 307 0
-289 1479 -307 0
289 -1480 307 0
289 1480 -307 0
-307 -290 -1481 308 0
-307 -290 1481 -308 0
-307 290 -1482 308 0
-307 290 1482 -308 0
307 -290 -1483 308 0
307 -290 1483 -308 0
307 290 -1484 308 0
307 290 1484 -308 0
-308 -291  -309 0
-308 291 309 0
308 -291  -309 0
308 291 309 0
-309 -292 -1489 310 0
-309 -292 1489 -310 0
-309 292 -1490 310 0
-309 292 1490 -310 0
309 -292 -1491 310 0
309 -292 1491 -310 0
309 292 -1492 310 0
309 292 1492 -310 0
-310 -293 -1493 311 0
-310 -293 1493 -311 0
-310 293 -1494 311 0
-310 293 1494 -311 0
310 -293 -1495 311 0
310 -293 1495 -311 0
310 293 -1496 311 0
310 293 1496 -311 0
-311 -294  -312 0
-311 294 312 0
311 -294  -312 0
311 294 312 0
-312 -295  -313 0
-312 295 313 0
312 -295 313 0
312 295 313 0
-313 -296 -1505 314 0
-313 -296 1505 -314 0
-313 296 -1506 314 0
-313 296 1506 -314 0
313 -296 -1507 314 0
313 -296 1507 -314 0
313 296 -1508 314 0
313 296 1508 -314 0
-314 -297 -1509 315 0
-314 -297 1509 -315 0
-314 297 -1510 315 0
-314 297 1510 -315 0
314 -297 -1511 315 0
314 -297 1511 -315 0
314 297 -1512 315 0
314 297 1512 -315 0
-315 -298 -1513 316 0
-315 -298 1513 -316 0
-315 298 -1514 316 0
-315 298 1514 -316 0
315 -298 -1515 316 0
315 -298 1515 -316 0
315 298 -1516 316 0
315 298 1516 -316 0
-316 -299  -317 0
-316 299 317 0
316 -299  -317 0
316 299 317 0
-317 -300 318 0
-317 300 318 0
317 -300  -318 0
317 300 318 0
-318 -301  -319 0
-318 301  -319 0
318 -301 319 0
318 301  -319 0
-319 -302 -1529 320 0
-319 -302 1529 -320 0
-319 302 -1530 320 0
-319 302 1530 -320 0
319 -302 -1531 320 0
319 -302 1531 -320 0
319 302 -1532 320 0
319 302 1532 -320 0
-320 -303 321 0
-320 303  -321 0
320 -303 321 0
320 303 321 0
-321 -304 -1537 322 0
-321 -304 1537 -322 0
-321 304 -1538 322 0
-321 304 1538 -322 0
321 -304 -1539 322 0
321 -304 1539 -322 0
321 304 -1540 322 0
321 304 1540 -322 0
-322 -305 -1541 323 0
-322 -305 1541 -323 0
-322 305 -1542 323 0
-322 305 1542 -323 0
322 -305 -1543 323 0
322 -305 1543 -323 0
322 305 -1544 323 0
322 305 1544 -323 0
-323 -306  -324 0
-323 306  -324 0
323 -306  -324 0
323 306 324 0
324 0
